25
    1    15    15
    2    12    12
    3     4     4
    4    20    20
    5    14    14
    6    14    14
    7    15    15
    8    14    14
    9     8     8
   10    19    19
   11    17    17
   12     7     7
   13     9     9
   14     3     3
   15     3     3
   16     5     5
   17     1     1
   18     4     4
   19    18    18
   20     4     4
   21    15    15
   22     9     9
   23     3     3
   24    17    17
   25    16    16
26
